
;node and network properties
(declare-const connected_network_lan (Set String))
(declare-const owner.home@47$junior14@47$Desktop@47$wordlist@46$txt_node_server String)
(declare-const memory_node_server Int)
(declare-const permission.junior14.ssh@95$configs@47$router@46$txt.read_node_server Bool)
(declare-const flavor_node_router String)
(declare-const owner.home@47$junior14@47$Desktop@47$instructions@46$txt_node_server String)
(declare-const owner.ssh@95$configs@47$router@46$txt_node_server String)
(declare-const password.junior14_node_server String)
(declare-const disk_node_server Int)
(declare-const users_node_server (Set String))
(declare-const permission.junior14.shared@47$fix@95$internet@46$py.read_node_server Bool)
(declare-const type_node_router String)
(declare-const basebox_node_router String)
(declare-const basebox_node_server String)
(declare-const password.admin_node_server String)
(declare-const OS_node_server String)
(declare-const netid_network_lan Int)
(declare-const scenario_name_general String)
(declare-const flavor_node_server String)
(declare-const OS_node_router String)
(declare-const disk_node_router Int)
(declare-const sudoers_node_server (Set String))
(declare-const files_node_server (Set String))
(declare-const directories_node_server (Set String))
(declare-const owner.home@47$junior14@47$Desktop_node_server String)
(declare-const permission.junior14.shared@47$fix@95$internet@46$py.execute_node_server Bool)
(declare-const owner.home@47$junior14_node_server String)
(declare-const memory_node_router Int)
(declare-const owner.shared@47$fix@95$internet@46$py_node_server String)
(declare-const owner.home@47$junior14@47$Desktop@47$dump@46$txt_node_server String)
(declare-const accessible_network_lan Bool)
(declare-const netsize_network_lan Int)

;assertions from user statements
(assert(and (str.<= "kali" OS_node_server) (str.< OS_node_server "kalj") (str.< "kali-@@@@2020" OS_node_server)))
(assert(= "Hj_I8!$" password.junior14_node_server))
(assert(= "bestadmin123" password.admin_node_server))
(assert(set.member "admin" sudoers_node_server))
(assert(set.member "ssh_configs" directories_node_server))
(assert(= "admin" owner.ssh@95$configs@47$router@46$txt_node_server))
(assert(= "admin" owner.shared@47$fix@95$internet@46$py_node_server))
(assert(= "junior14" owner.home@47$junior14_node_server))
(assert(= "junior14" owner.home@47$junior14@47$Desktop_node_server))
(assert(= "junior14" owner.home@47$junior14@47$Desktop@47$dump@46$txt_node_server))
(assert(= "junior14" owner.home@47$junior14@47$Desktop@47$wordlist@46$txt_node_server))
(assert(= "junior14" owner.home@47$junior14@47$Desktop@47$instructions@46$txt_node_server))
(assert(not (= permission.junior14.ssh@95$configs@47$router@46$txt.read_node_server true)))
(assert(not (= permission.junior14.shared@47$fix@95$internet@46$py.read_node_server true)))
(assert(= permission.junior14.shared@47$fix@95$internet@46$py.execute_node_server true))
(assert(> disk_node_server 20000000000))
(assert(= type_node_router "router"))
(assert(= basebox_node_router "munikypo/kali-2020.4"))
(assert(= flavor_node_router "csirtmu.tiny1x2"))
(assert(and (= netid_network_lan 3658363936) (= netsize_network_lan 32) (<= (set.card connected_network_lan) (- netsize_network_lan 2))))
(assert(set.member "router" connected_network_lan))
(assert(set.member "server" connected_network_lan))
(assert(= accessible_network_lan true))
(assert(= "simple-password-cracking" scenario_name_general))

;statements implied by assertions
(assert(=> (= "Hj_I8!$" password.junior14_node_server) (set.member "junior14" users_node_server)))
(assert(=> (= "bestadmin123" password.admin_node_server) (set.member "admin" users_node_server)))
(assert(=> (set.member "admin" sudoers_node_server) (set.member "admin" users_node_server)))
(assert(=> (set.member "ssh_configs/router.txt" files_node_server) (= (set.insert "ssh_configs"  directories_node_server) directories_node_server)))
(assert(=> (= "admin" owner.ssh@95$configs@47$router@46$txt_node_server) (and (set.member "admin" users_node_server) (set.member "ssh_configs/router.txt" files_node_server))))
(assert(=> (set.member "shared/fix_internet.py" files_node_server) (= (set.insert "shared"  directories_node_server) directories_node_server)))
(assert(=> (= "admin" owner.shared@47$fix@95$internet@46$py_node_server) (and (set.member "admin" users_node_server) (set.member "shared/fix_internet.py" files_node_server))))
(assert(=> (set.member "home/junior14" directories_node_server) (= (set.insert "home"  directories_node_server) directories_node_server)))
(assert(=> (= "junior14" owner.home@47$junior14_node_server) (and (set.member "junior14" users_node_server) (set.member "home/junior14" directories_node_server))))
(assert(=> (set.member "home/junior14/Desktop" directories_node_server) (= (set.insert "home/junior14" "home"  directories_node_server) directories_node_server)))
(assert(=> (= "junior14" owner.home@47$junior14@47$Desktop_node_server) (and (set.member "junior14" users_node_server) (set.member "home/junior14/Desktop" directories_node_server))))
(assert(=> (set.member "home/junior14/Desktop/dump.txt" files_node_server) (= (set.insert "home/junior14/Desktop" "home/junior14" "home"  directories_node_server) directories_node_server)))
(assert(=> (= "junior14" owner.home@47$junior14@47$Desktop@47$dump@46$txt_node_server) (and (set.member "junior14" users_node_server) (set.member "home/junior14/Desktop/dump.txt" files_node_server))))
(assert(=> (set.member "home/junior14/Desktop/wordlist.txt" files_node_server) (= (set.insert "home/junior14/Desktop" "home/junior14" "home"  directories_node_server) directories_node_server)))
(assert(=> (= "junior14" owner.home@47$junior14@47$Desktop@47$wordlist@46$txt_node_server) (and (set.member "junior14" users_node_server) (set.member "home/junior14/Desktop/wordlist.txt" files_node_server))))
(assert(=> (set.member "home/junior14/Desktop/instructions.txt" files_node_server) (= (set.insert "home/junior14/Desktop" "home/junior14" "home"  directories_node_server) directories_node_server)))
(assert(=> (= "junior14" owner.home@47$junior14@47$Desktop@47$instructions@46$txt_node_server) (and (set.member "junior14" users_node_server) (set.member "home/junior14/Desktop/instructions.txt" files_node_server))))
(assert(=> (= permission.junior14.ssh@95$configs@47$router@46$txt.read_node_server true) (and (set.member "junior14" users_node_server) (or (set.member "ssh_configs/router.txt" files_node_server) (set.member "ssh_configs/router.txt" directories_node_server)))))
(assert(=> (= permission.junior14.shared@47$fix@95$internet@46$py.read_node_server true) (and (set.member "junior14" users_node_server) (or (set.member "shared/fix_internet.py" files_node_server) (set.member "shared/fix_internet.py" directories_node_server)))))
(assert(=> (= permission.junior14.shared@47$fix@95$internet@46$py.execute_node_server true) (and (set.member "junior14" users_node_server) (or (set.member "shared/fix_internet.py" files_node_server) (set.member "shared/fix_internet.py" directories_node_server)))))

;enviromental properties
(declare-const type_limit_allowed (Set String))
(declare-const BaseBoxes_limit_allowed (Set String))
(declare-fun OS_getter (String) String)
(declare-const flavor_limit_allowed (Set String))
(declare-fun memory_getter (String) Int)
(declare-fun disk_getter (String) Int)

;environmental limits
(assert(<=  disk_node_server 40000000000))
(assert(<=  disk_node_router 40000000000))
(assert(<=  (+ 0 disk_node_server disk_node_router) 180000000000))
(assert(<=  memory_node_server 4000000000))
(assert(<=  memory_node_router 4000000000))
(assert(<=  (+ 0 memory_node_server memory_node_router) 8000000000))
(assert(= (set.card type_limit_allowed) 2))
(assert(= (set.insert "router" "compute"  type_limit_allowed) type_limit_allowed))
(assert(= (set.insert type_node_router  type_limit_allowed) type_limit_allowed))
(assert(= (set.card BaseBoxes_limit_allowed) 2))
(assert(= (set.insert "munikypo/ubuntu-22.04" "munikypo/kali-2020.4"  BaseBoxes_limit_allowed) BaseBoxes_limit_allowed))
(assert(= (set.insert basebox_node_router basebox_node_server  BaseBoxes_limit_allowed) BaseBoxes_limit_allowed))
(assert(= "ubuntu-@@22@@04" (OS_getter "munikypo/ubuntu-22.04")))
(assert(= "kali-@@@@2020@4" (OS_getter "munikypo/kali-2020.4")))
(assert(= OS_node_router (OS_getter basebox_node_router)))
(assert(= OS_node_server (OS_getter basebox_node_server)))
(assert(= (set.card flavor_limit_allowed) 10))
(assert(= (set.insert "csirtmu.tiny1x2" "csirtmu.tiny1x4" "csirtmu.small2x4" "csirtmu.small2x8" "csirtmu.medium4x8" "csirtmu.medium4x16" "csirtmu.large8x16" "csirtmu.large8x32" "csirtmu.jumbo16x32" "csirtmu.jumbo16x64"  flavor_limit_allowed) flavor_limit_allowed))
(assert(= (set.insert flavor_node_router flavor_node_server  flavor_limit_allowed) flavor_limit_allowed))
(assert(= 2000000000 (memory_getter "csirtmu.tiny1x2")))
(assert(= 4000000000 (memory_getter "csirtmu.tiny1x4")))
(assert(= 4000000000 (memory_getter "csirtmu.small2x4")))
(assert(= 8000000000 (memory_getter "csirtmu.small2x8")))
(assert(= 8000000000 (memory_getter "csirtmu.medium4x8")))
(assert(= 16000000000 (memory_getter "csirtmu.medium4x16")))
(assert(= 16000000000 (memory_getter "csirtmu.large8x16")))
(assert(= 32000000000 (memory_getter "csirtmu.large8x32")))
(assert(= 32000000000 (memory_getter "csirtmu.jumbo16x32")))
(assert(= 64000000000 (memory_getter "csirtmu.jumbo16x64")))
(assert(= memory_node_router (memory_getter flavor_node_router)))
(assert(= memory_node_server (memory_getter flavor_node_server)))
(assert(= 20000000000 (disk_getter "csirtmu.tiny1x2")))
(assert(= 20000000000 (disk_getter "csirtmu.tiny1x4")))
(assert(= 40000000000 (disk_getter "csirtmu.small2x4")))
(assert(= 40000000000 (disk_getter "csirtmu.small2x8")))
(assert(= 40000000000 (disk_getter "csirtmu.medium4x8")))
(assert(= 40000000000 (disk_getter "csirtmu.medium4x16")))
(assert(= 80000000000 (disk_getter "csirtmu.large8x16")))
(assert(= 80000000000 (disk_getter "csirtmu.large8x32")))
(assert(= 100000000000 (disk_getter "csirtmu.jumbo16x32")))
(assert(= 100000000000 (disk_getter "csirtmu.jumbo16x64")))
(assert(= disk_node_router (disk_getter flavor_node_router)))
(assert(= disk_node_server (disk_getter flavor_node_server)))
